702 5
10 10 10 10 10 

0 0 0 0 0 0 5 2 54 106 158 170 
0 0 0 0 0 0 1 3 
5 1 1 1 1 1 1 4 
1 3 3 2 5 2 2 7 5 
3 3 2 1 2 2 1 6 
1 6 3 4 1 3 1 8 
9 1 4 4 2 1 1 8 
6 2 3 2 6 4 2 10 9 
5 2 2 4 5 1 1 11 
10 1 1 4 2 2 1 11 
1 4 3 4 2 4 2 12 496 
9 2 2 3 2 6 1 13 
2 4 2 3 1 3 1 14 
6 4 1 1 2 3 1 15 
8 5 1 3 2 3 2 17 16 
3 5 1 3 2 3 2 20 18 
2 3 3 1 1 3 1 18 
4 3 3 2 4 3 1 19 
6 2 1 2 3 2 1 21 
5 2 2 2 1 1 1 21 
2 3 3 2 1 3 2 24 22 
10 3 3 2 2 2 2 25 23 
8 1 4 2 5 3 2 28 27 
8 1 2 1 4 2 2 28 27 
5 1 1 3 1 2 1 26 
4 2 4 5 2 1 1 27 
10 2 1 3 1 1 2 30 29 
7 2 5 2 1 2 2 33 30 
1 1 1 3 2 1 2 33 32 
6 2 5 1 4 2 1 31 
3 3 6 1 2 2 1 32 
8 1 1 5 2 4 1 34 
6 2 2 2 2 2 1 34 
1 7 3 3 2 2 1 35 
4 3 1 4 2 4 2 38 36 
4 1 4 2 4 2 1 37 
1 3 4 3 3 3 2 41 39 
4 1 2 1 3 2 2 41 40 
1 2 2 2 1 3 1 40 
6 4 5 2 2 2 1 42 
1 4 2 1 2 1 1 42 
7 3 3 4 2 4 2 45 43 
10 3 3 4 4 4 1 44 
10 2 2 1 1 1 1 46 
10 2 3 1 4 3 1 46 
9 2 2 2 2 2 1 47 
4 1 2 2 3 4 1 48 
8 2 3 1 2 1 1 49 
4 1 2 5 5 3 2 52 50 
10 2 1 4 4 4 1 51 
1 1 4 2 4 1 1 53 
2 4 1 3 2 5 1 53 
0 0 0 0 0 0 1 702 
0 0 0 0 0 0 1 55 
1 1 1 1 1 1 2 66 56 
10 1 3 2 2 1 1 57 
1 2 4 1 3 2 1 58 
6 4 2 3 2 3 1 59 
8 3 1 5 3 2 2 64 60 
6 3 2 1 2 2 1 61 
10 4 3 5 1 1 1 62 
2 4 2 1 2 2 1 63 
7 1 3 1 3 4 1 65 
1 3 2 2 3 2 1 65 
4 2 2 2 1 5 2 69 67 
9 2 1 3 2 1 1 67 
6 1 8 2 3 2 1 68 
1 3 1 3 2 2 2 79 70 
2 2 2 7 2 6 1 70 
5 2 1 2 2 3 1 71 
1 3 1 2 5 2 1 72 
1 6 1 1 1 6 3 83 81 73 
3 3 2 2 4 2 2 85 74 
3 3 2 5 4 2 1 75 
3 3 3 2 1 2 1 76 
9 1 1 2 4 2 2 84 77 
9 1 3 3 1 2 1 78 
7 2 2 1 3 5 1 80 
10 1 2 1 3 3 1 80 
8 2 3 3 1 2 1 82 
1 2 1 4 2 3 1 82 
8 4 2 2 1 2 2 88 86 
5 1 4 3 2 5 1 85 
7 3 4 1 4 2 3 99 90 87 
4 4 2 2 2 2 1 86 
4 3 3 2 2 2 2 99 87 
8 1 3 5 2 1 1 89 
3 4 4 4 2 2 2 99 92 
5 2 2 3 5 4 1 91 
6 2 2 4 1 2 2 91 569 
1 2 2 3 4 3 1 92 
1 3 1 2 2 2 1 93 
10 2 2 1 1 2 2 104 94 
3 4 3 3 4 2 1 95 
8 3 4 3 3 2 1 96 
6 3 4 2 2 1 1 97 
8 2 4 3 3 4 1 98 
7 4 3 1 4 2 1 100 
5 4 2 3 2 4 1 100 
10 3 3 3 3 3 2 103 101 
2 1 2 2 5 1 1 102 
4 2 3 3 4 2 1 105 
4 2 4 2 2 2 1 105 
8 1 3 1 2 3 1 105 
0 0 0 0 0 0 1 702 
0 0 0 0 0 0 1 107 
7 1 1 1 1 1 2 111 108 
2 2 3 4 5 2 1 109 
4 2 2 2 2 3 1 110 
7 2 1 3 3 2 1 112 
4 2 6 2 3 2 1 112 
1 2 1 2 3 1 2 116 113 
8 4 3 3 1 1 1 114 
8 4 2 2 2 3 1 115 
1 3 1 2 1 2 1 117 
10 1 3 2 3 3 1 117 
1 2 2 2 4 4 2 118 482 
6 1 2 4 1 4 1 119 
1 2 2 3 5 4 2 121 120 
5 2 1 1 5 2 2 126 122 
9 1 2 3 3 4 1 122 
9 2 2 2 4 3 1 123 
3 3 3 4 2 3 1 124 
8 4 3 1 2 1 3 131 130 125 
8 3 2 3 5 5 2 133 127 
1 1 2 1 2 3 2 133 127 
4 4 2 3 2 2 1 128 
4 3 3 2 3 2 1 129 
10 2 1 5 1 1 2 134 132 
9 3 2 4 2 3 2 134 132 
10 2 3 1 1 3 2 139 133 
9 2 2 3 3 3 1 135 
4 4 2 4 2 2 1 135 
8 1 4 1 3 4 2 139 137 
7 2 4 3 1 4 1 136 
9 2 1 3 3 4 1 137 
9 5 4 1 2 4 1 138 
4 3 3 3 2 3 2 141 140 
7 3 2 2 2 1 2 142 141 
9 3 2 2 3 2 2 146 142 
5 2 2 3 1 2 2 146 144 
9 7 4 3 3 1 1 143 
10 3 5 2 2 1 1 144 
4 2 3 1 5 2 1 145 
8 1 3 1 3 2 2 151 147 
3 3 1 2 4 2 2 151 147 
8 3 3 3 2 1 1 148 
6 2 3 3 2 1 1 149 
10 4 2 4 1 2 1 150 
9 1 1 2 1 2 1 152 
5 4 2 4 2 2 1 152 
6 2 2 1 5 2 1 153 
5 1 2 1 1 2 2 156 154 
6 2 3 5 2 6 1 155 
2 3 5 4 2 3 1 157 
3 2 5 2 2 3 1 157 
0 0 0 0 0 0 1 702 
0 0 0 0 0 0 3 159 165 168 
4 0 0 0 1 0 1 160 
4 0 0 0 6 0 1 161 
7 0 0 0 1 0 2 167 162 
1 0 0 0 1 0 1 163 
10 0 0 0 4 0 2 164 632 
6 0 0 0 1 0 1 166 
5 0 0 0 5 0 1 167 
2 0 0 0 3 0 1 169 
4 0 0 0 1 0 1 169 
7 0 0 0 2 0 1 169 
0 0 0 0 0 0 5 222 234 276 318 360 
0 0 0 0 0 0 1 171 
7 1 1 1 1 1 2 176 172 
5 1 2 6 2 3 1 173 
7 2 3 1 2 3 1 174 
2 2 3 3 3 2 1 175 
8 3 1 3 2 2 2 180 177 
9 5 1 2 1 3 1 177 
7 8 4 3 2 3 1 178 
9 1 3 4 2 2 1 179 
3 2 2 3 2 3 1 181 
2 2 4 4 3 5 1 181 
1 3 2 5 2 2 1 182 
8 2 1 2 2 4 1 183 
3 3 5 3 1 4 2 185 184 
3 2 5 4 2 4 2 190 186 
6 2 3 2 4 3 1 186 
8 1 1 1 1 3 1 187 
6 1 4 3 5 1 1 188 
7 1 3 2 3 1 3 195 194 189 
9 2 4 5 2 5 2 197 191 
9 2 3 2 2 4 2 197 192 
2 2 2 2 3 1 1 192 
4 1 3 4 3 3 1 193 
8 5 2 3 1 1 2 198 196 
8 3 2 3 2 1 2 204 196 
10 1 1 1 1 4 1 197 
4 1 1 1 4 2 1 199 
2 2 1 1 3 2 1 199 
7 3 6 2 3 1 2 204 201 
4 5 1 2 2 1 1 200 
9 1 3 2 3 1 1 201 
4 1 2 1 4 2 1 202 
10 4 1 2 3 1 2 205 203 
9 2 1 2 2 1 2 210 206 
5 2 3 3 2 1 2 207 205 
4 3 3 2 3 3 2 210 208 
5 1 3 3 5 2 1 207 
8 4 2 3 3 3 1 208 
10 4 2 1 2 4 1 209 
7 4 3 1 3 3 2 215 211 
10 4 2 3 2 4 2 215 212 
10 3 2 4 3 5 1 212 
1 3 2 2 2 2 1 213 
6 2 1 3 4 1 1 214 
9 2 4 3 1 4 1 216 
6 2 2 3 2 1 2 216 668 
9 5 4 2 3 4 1 217 
8 2 2 1 4 3 2 220 218 
3 2 3 1 1 2 1 219 
1 3 2 3 4 1 1 221 
8 2 4 2 3 3 1 221 
0 0 0 0 0 0 1 702 
0 0 0 0 0 0 3 223 228 661 
4 0 0 0 0 1 2 232 224 
1 0 0 0 0 1 1 225 
7 0 0 0 0 3 1 226 
8 0 0 0 0 2 1 227 
6 0 0 0 0 4 2 231 229 
7 0 0 0 0 2 2 231 229 
6 0 0 0 0 3 1 230 
5 0 0 0 0 2 1 233 
4 0 0 0 0 3 1 233 
6 0 0 0 0 4 1 233 
0 0 0 0 0 0 5 402 434 446 478 510 
0 0 0 0 0 0 3 235 257 274 
6 0 1 1 1 1 1 236 
6 0 2 3 2 2 1 237 
7 0 1 2 2 3 1 238 
10 0 3 3 3 3 1 239 
10 0 3 2 2 1 2 273 240 
2 0 3 3 2 3 1 241 
1 0 3 3 1 3 1 242 
3 0 4 3 2 2 1 243 
2 0 4 1 2 1 2 272 244 
6 0 4 2 1 3 1 245 
5 0 3 3 4 3 1 246 
1 0 1 4 1 1 1 247 
8 0 4 2 3 3 2 271 248 
3 0 1 3 2 2 3 270 269 249 
1 0 2 1 4 1 1 250 
1 0 3 3 6 1 1 251 
4 0 1 3 3 5 1 252 
1 0 1 3 3 1 1 253 
2 0 2 4 2 4 2 268 254 
10 0 3 1 4 2 3 267 266 255 
6 0 2 4 2 2 1 256 
1 0 2 3 3 3 1 258 
9 0 3 1 2 3 1 258 
4 0 2 1 1 2 1 259 
4 0 2 6 1 3 1 260 
2 0 4 5 2 3 1 261 
3 0 1 1 4 3 1 262 
2 0 2 2 3 3 1 263 
1 0 1 3 2 3 2 264 460 
4 0 3 3 2 4 1 265 
3 0 3 2 3 3 1 275 
4 0 2 3 2 4 1 275 
2 0 1 2 1 2 1 275 
3 0 4 1 5 2 1 275 
5 0 2 2 4 2 1 275 
2 0 4 2 1 3 1 275 
9 0 3 1 4 2 1 275 
10 0 5 3 4 3 1 275 
3 0 2 3 3 1 1 275 
9 0 3 2 1 4 1 275 
0 0 0 0 0 0 1 702 
0 0 0 0 0 0 3 277 285 293 
4 1 1 0 1 1 1 278 
8 3 4 0 2 2 1 279 
8 2 1 0 4 2 1 280 
1 2 5 0 5 1 1 281 
6 3 4 0 4 4 2 291 282 
4 2 2 0 4 1 1 283 
7 1 4 0 1 2 1 284 
5 3 3 0 2 1 1 286 
8 1 3 0 4 3 1 286 
9 2 2 0 4 2 1 287 
4 2 3 0 2 1 1 288 
10 2 1 0 5 5 1 289 
3 3 2 0 1 1 2 307 290 
7 4 3 0 3 2 2 316 292 
9 2 1 0 4 1 2 316 292 
5 2 4 0 1 6 2 306 294 
7 3 2 0 2 2 3 307 306 295 
6 2 2 0 5 3 2 315 295 
2 3 1 0 1 2 1 296 
6 2 2 0 2 6 1 297 
10 2 2 0 1 6 2 298 526 
6 4 2 0 2 1 2 312 299 
8 5 3 0 2 4 3 314 313 300 
6 3 4 0 1 3 1 301 
1 2 2 0 3 3 1 302 
2 1 3 0 2 4 1 303 
5 1 1 0 2 1 1 304 
6 4 2 0 2 3 1 305 
2 6 2 0 2 2 1 308 
5 3 1 0 2 2 1 308 
1 2 2 0 3 1 2 312 310 
3 1 3 0 2 1 1 309 
2 2 7 0 2 1 1 310 
3 3 2 0 2 2 1 311 
9 1 2 0 1 1 1 317 
5 2 2 0 3 3 1 317 
9 5 2 0 3 2 1 317 
6 3 3 0 5 4 1 317 
1 3 2 0 2 2 1 317 
4 2 3 0 1 6 1 317 
0 0 0 0 0 0 1 702 
0 0 0 0 0 0 3 319 332 340 
2 0 1 1 1 1 1 320 
7 0 2 2 1 2 2 321 686 
4 0 3 5 1 3 1 322 
7 0 5 3 5 2 1 323 
6 0 2 2 3 1 2 334 324 
9 0 2 4 2 4 1 325 
7 0 3 2 1 2 1 326 
1 0 4 1 1 1 1 327 
9 0 2 2 2 3 1 328 
7 0 4 4 5 3 2 358 329 
2 0 2 1 1 3 1 330 
10 0 1 4 2 2 1 331 
2 0 5 4 1 1 2 357 333 
3 0 2 2 2 3 2 358 333 
8 0 4 3 2 3 3 356 349 335 
3 0 3 2 5 4 3 356 349 336 
7 0 2 2 3 3 1 336 
2 0 3 4 4 6 1 337 
9 0 3 2 3 3 1 338 
3 0 1 2 4 1 1 339 
6 0 1 1 1 2 2 355 341 
1 0 4 3 2 2 4 355 354 353 342 
6 0 4 1 2 2 3 354 353 342 
7 0 2 1 2 2 1 343 
6 0 1 1 3 4 1 344 
1 0 1 4 3 2 1 345 
2 0 4 1 4 4 1 346 
4 0 2 2 6 2 1 347 
7 0 2 8 3 1 1 348 
5 0 1 3 4 2 1 350 
7 0 2 1 2 4 1 350 
2 0 2 4 1 3 1 351 
1 0 1 1 3 1 1 352 
3 0 2 3 1 4 1 359 
5 0 5 4 2 2 1 359 
7 0 3 3 1 4 1 359 
3 0 2 1 3 2 1 359 
2 0 1 3 1 2 1 359 
7 0 3 1 3 3 1 359 
7 0 3 2 4 1 1 359 
0 0 0 0 0 0 1 702 
0 0 0 0 0 0 3 361 375 400 
5 1 1 1 0 1 1 362 
2 3 1 5 0 2 1 363 
3 5 1 4 0 2 1 364 
3 1 4 2 0 5 1 365 
5 1 3 2 0 3 2 382 366 
1 3 3 4 0 2 1 367 
6 2 2 2 0 3 1 368 
3 1 3 6 0 3 1 369 
9 2 2 1 0 3 2 399 370 
1 1 2 4 0 2 1 371 
1 3 2 1 0 2 1 372 
2 4 1 1 0 2 1 373 
3 4 1 4 0 1 2 398 374 
1 5 1 1 0 2 3 397 396 376 
2 2 3 1 0 2 2 396 376 
4 2 1 3 0 1 2 377 668 
3 2 4 1 0 2 1 378 
8 2 4 1 0 3 1 379 
9 1 3 1 0 6 1 380 
10 3 3 2 0 1 2 395 381 
7 1 1 4 0 5 3 394 393 383 
9 2 3 1 0 2 2 393 385 
7 2 4 3 0 3 1 384 
1 2 2 2 0 2 1 385 
2 1 2 3 0 4 1 386 
5 5 4 2 0 4 1 387 
8 1 2 1 0 2 1 388 
1 4 2 4 0 1 1 389 
10 3 2 2 0 3 1 390 
7 3 1 2 0 2 1 391 
8 5 2 5 0 3 1 392 
6 2 2 2 0 1 1 401 
4 2 2 1 0 1 1 401 
9 1 3 1 0 5 1 401 
2 3 3 4 0 4 1 401 
5 7 10 3 0 1 1 401 
3 3 2 4 0 2 1 401 
1 1 5 2 0 2 1 401 
6 2 1 3 0 3 1 401 
8 2 2 4 0 2 1 401 
0 0 0 0 0 0 1 702 
0 0 0 0 0 0 2 403 432 
8 1 1 0 0 1 1 404 
4 3 3 0 0 2 1 405 
3 3 4 0 0 3 1 406 
5 2 3 0 0 1 2 407 655 
3 2 2 0 0 5 2 431 408 
8 4 2 0 0 4 1 409 
5 2 4 0 0 2 1 410 
3 2 2 0 0 3 5 423 421 416 415 411 
4 2 1 0 0 1 1 412 
4 3 1 0 0 2 2 418 413 
3 3 2 0 0 5 1 414 
9 3 2 0 0 4 1 417 
2 2 4 0 0 4 1 418 
4 3 1 0 0 2 1 417 
8 2 2 0 0 4 1 419 
2 2 7 0 0 2 1 419 
10 2 2 0 0 1 1 420 
8 5 2 0 0 1 2 430 422 
5 3 2 0 0 2 2 430 422 
9 3 2 0 0 2 1 424 
8 2 1 0 0 1 1 424 
7 1 2 0 0 2 1 425 
5 2 2 0 0 2 1 426 
10 2 3 0 0 2 1 427 
1 4 4 0 0 3 1 428 
1 4 2 0 0 4 1 429 
8 2 2 0 0 3 1 433 
5 2 4 0 0 2 1 433 
1 2 2 0 0 1 1 433 
3 2 4 0 0 4 1 433 
0 0 0 0 0 0 1 702 
0 0 0 0 0 0 2 435 441 
9 0 0 0 1 0 2 444 436 
1 0 0 0 3 0 1 437 
5 0 0 0 3 0 3 443 438 676 
5 0 0 0 2 0 1 439 
1 0 0 0 3 0 1 440 
1 0 0 0 2 0 1 442 
6 0 0 0 3 0 1 442 
7 0 0 0 3 0 1 445 
9 0 0 0 2 0 1 445 
1 0 0 0 3 0 1 445 
0 0 0 0 0 0 5 542 564 586 608 630 
0 0 0 0 0 0 2 447 453 
9 0 1 0 1 1 1 448 
7 0 2 0 4 2 1 449 
2 0 4 0 2 3 1 450 
5 0 2 0 3 6 1 451 
6 0 2 0 2 4 2 458 452 
2 0 3 0 3 1 1 454 
8 0 3 0 2 2 1 454 
3 0 2 0 3 2 1 455 
6 0 2 0 2 1 3 460 459 456 
4 0 2 0 2 1 2 462 457 
2 0 1 0 1 2 3 465 464 461 
1 0 4 0 2 2 3 465 464 461 
1 0 1 0 2 2 3 464 461 657 
2 0 2 0 2 2 2 464 461 
6 0 4 0 4 5 1 463 
6 0 1 0 2 1 1 463 
8 0 2 0 5 3 1 466 
5 0 6 0 3 4 1 466 
7 0 2 0 2 5 1 466 
7 0 1 0 2 2 1 467 
8 0 5 0 1 1 1 468 
4 0 3 0 2 4 2 472 469 
8 0 2 0 2 1 1 470 
8 0 2 0 3 1 1 471 
2 0 2 0 3 5 1 473 
8 0 1 0 2 2 1 473 
9 0 3 0 5 5 1 474 
6 0 3 0 1 2 1 475 
7 0 5 0 3 2 1 476 
5 0 2 0 4 1 1 477 
0 0 0 0 0 0 1 702 
0 0 0 0 0 0 2 479 508 
3 0 0 1 1 1 1 480 
9 0 0 2 2 2 1 481 
8 0 0 4 1 1 1 482 
3 0 0 1 3 2 1 483 
9 0 0 1 3 2 2 507 484 
1 0 0 3 2 4 1 485 
8 0 0 3 1 6 1 486 
5 0 0 3 5 1 5 506 503 496 492 487 
10 0 0 3 2 2 1 488 
7 0 0 4 2 4 2 494 489 
1 0 0 2 1 2 1 490 
2 0 0 3 2 4 1 491 
7 0 0 2 6 2 1 493 
5 0 0 2 4 4 1 494 
6 0 0 1 3 3 1 495 
4 0 0 3 3 1 1 495 
4 0 0 2 3 3 2 505 497 
3 0 0 1 1 2 2 505 499 
5 0 0 2 3 2 1 498 
4 0 0 3 2 2 1 499 
6 0 0 5 1 2 1 500 
3 0 0 5 3 4 1 501 
4 0 0 3 1 2 1 502 
10 0 0 2 4 2 1 504 
2 0 0 2 2 1 2 504 647 
3 0 0 3 3 2 1 509 
7 0 0 3 3 4 1 509 
4 0 0 3 5 2 1 509 
2 0 0 1 2 3 1 509 
7 0 0 2 1 3 1 509 
0 0 0 0 0 0 1 702 
0 0 0 0 0 0 2 511 515 
4 1 0 1 1 0 1 512 
2 3 0 2 3 0 1 513 
5 2 0 1 1 0 1 514 
9 3 0 2 2 0 1 516 
10 2 0 1 3 0 1 516 
7 5 0 4 5 0 2 521 517 
1 1 0 2 2 0 1 518 
1 4 0 3 1 0 1 519 
8 6 0 1 3 0 3 524 523 520 
1 4 0 1 6 0 2 525 522 
6 2 0 3 1 0 2 525 522 
4 1 0 2 2 0 3 529 528 526 
2 2 0 1 2 0 2 528 526 
9 4 0 4 2 0 2 528 526 
4 4 0 3 1 0 2 528 527 
6 2 0 3 3 0 1 527 
6 1 0 2 4 0 1 530 
2 1 0 3 4 0 1 530 
7 3 0 3 3 0 1 530 
10 3 0 3 1 0 1 531 
2 1 0 2 4 0 1 532 
7 1 0 2 1 0 2 536 533 
1 4 0 4 3 0 1 534 
10 3 0 4 2 0 1 535 
9 2 0 4 3 0 1 537 
10 1 0 3 3 0 2 537 619 
2 1 0 3 2 0 1 538 
3 1 0 3 1 0 1 539 
4 5 0 1 3 0 1 540 
8 2 0 4 3 0 1 541 
0 0 0 0 0 0 1 702 
0 0 0 0 0 0 2 543 558 
8 1 1 0 0 0 2 550 544 
9 2 3 0 0 0 1 545 
10 1 1 0 0 0 2 562 546 
10 2 3 0 0 0 1 547 
3 3 2 0 0 0 1 548 
6 2 4 0 0 0 1 549 
1 2 4 0 0 0 2 561 551 
3 5 1 0 0 0 2 561 552 
8 1 3 0 0 0 1 552 
7 4 2 0 0 0 1 553 
4 2 3 0 0 0 2 560 554 
5 2 2 0 0 0 1 555 
6 3 4 0 0 0 1 556 
1 2 2 0 0 0 1 557 
9 3 3 0 0 0 1 559 
3 4 1 0 0 0 1 560 
6 3 3 0 0 0 1 563 
4 4 2 0 0 0 2 563 648 
4 1 4 0 0 0 1 563 
4 3 2 0 0 0 1 563 
0 0 0 0 0 0 1 702 
0 0 0 0 0 0 2 565 578 
1 0 1 0 0 1 2 569 566 
8 0 2 0 0 2 1 567 
8 0 1 0 0 3 1 568 
7 0 2 0 0 4 2 574 570 
10 0 3 0 0 3 1 570 
2 0 2 0 0 1 1 571 
6 0 1 0 0 3 2 581 572 
6 0 5 0 0 3 1 573 
6 0 3 0 0 3 2 584 575 
10 0 1 0 0 2 2 584 575 
10 0 3 0 0 3 1 576 
2 0 2 0 0 4 1 577 
3 0 4 0 0 3 1 579 
2 0 1 0 0 1 2 579 594 
7 0 2 0 0 4 1 580 
6 0 4 0 0 1 1 582 
1 0 2 0 0 1 1 582 
6 0 3 0 0 2 1 583 
3 0 6 0 0 2 1 585 
5 0 2 0 0 4 1 585 
0 0 0 0 0 0 1 702 
0 0 0 0 0 0 5 587 603 604 605 606 
6 0 1 0 1 0 1 588 
5 0 2 0 5 0 1 589 
9 0 2 0 3 0 1 590 
5 0 4 0 2 0 1 591 
6 0 2 0 2 0 2 602 592 
8 0 2 0 3 0 1 593 
5 0 3 0 2 0 1 594 
3 0 1 0 5 0 1 595 
2 0 2 0 2 0 1 596 
2 0 3 0 2 0 1 597 
3 0 2 0 1 0 1 598 
7 0 2 0 3 0 1 599 
8 0 5 0 1 0 2 600 650 
4 0 2 0 3 0 1 601 
1 0 3 0 1 0 1 607 
2 0 3 0 1 0 1 607 
2 0 3 0 2 0 1 607 
5 0 2 0 5 0 1 607 
4 0 2 0 2 0 1 607 
6 0 4 0 4 0 1 607 
0 0 0 0 0 0 1 702 
0 0 0 0 0 0 2 609 628 
8 1 0 0 1 0 3 627 626 610 
5 3 0 0 4 0 1 611 
2 5 0 0 3 0 1 612 
3 2 0 0 1 0 1 613 
6 2 0 0 2 0 1 614 
1 1 0 0 1 0 3 625 624 615 
6 3 0 0 3 0 1 616 
10 3 0 0 4 0 1 617 
1 2 0 0 2 0 1 618 
3 3 0 0 2 0 1 619 
2 3 0 0 2 0 1 620 
2 2 0 0 3 0 1 621 
6 3 0 0 1 0 1 622 
5 2 0 0 3 0 1 623 
6 2 0 0 3 0 1 629 
1 3 0 0 3 0 1 629 
9 3 0 0 2 0 1 629 
3 4 0 0 3 0 1 629 
3 2 0 0 4 0 1 629 
2 1 0 0 3 0 1 629 
0 0 0 0 0 0 1 702 
0 0 0 0 0 0 3 631 635 639 
5 0 0 0 0 1 1 632 
2 0 0 0 0 5 2 638 633 
2 0 0 0 0 2 1 634 
4 0 0 0 0 2 1 636 
1 0 0 0 0 2 1 636 
4 0 0 0 0 2 1 637 
5 0 0 0 0 2 1 640 
10 0 0 0 0 1 1 640 
7 0 0 0 0 3 1 640 
2 0 0 0 0 5 1 641 
0 0 0 0 0 0 5 642 654 666 678 690 
0 0 0 0 0 0 1 643 
6 1 0 0 0 0 2 649 644 
8 2 0 0 0 0 1 645 
3 1 0 0 0 0 2 652 646 
9 4 0 0 0 0 2 651 647 
10 2 0 0 0 0 1 648 
3 1 0 0 0 0 1 650 
5 1 0 0 0 0 1 651 
3 6 0 0 0 0 1 653 
8 2 0 0 0 0 1 653 
1 5 0 0 0 0 1 653 
0 0 0 0 0 0 1 702 
0 0 0 0 0 0 2 655 656 
2 0 1 0 0 0 2 658 657 
8 0 1 0 0 0 2 658 657 
6 0 3 0 0 0 1 659 
1 0 3 0 0 0 1 659 
10 0 3 0 0 0 1 660 
10 0 3 0 0 0 2 662 661 
1 0 2 0 0 0 1 663 
7 0 2 0 0 0 1 663 
4 0 4 0 0 0 1 664 
2 0 3 0 0 0 1 665 
0 0 0 0 0 0 1 702 
0 0 0 0 0 0 2 667 668 
2 0 0 1 0 0 2 673 669 
3 0 0 2 0 0 2 673 671 
1 0 0 2 0 0 1 670 
3 0 0 3 0 0 1 671 
3 0 0 4 0 0 2 676 672 
2 0 0 1 0 0 1 674 
3 0 0 4 0 0 1 674 
3 0 0 3 0 0 1 675 
4 0 0 1 0 0 1 677 
1 0 0 4 0 0 1 677 
0 0 0 0 0 0 1 702 
0 0 0 0 0 0 1 679 
3 0 0 0 1 0 3 688 685 680 
6 0 0 0 1 0 1 681 
10 0 0 0 4 0 1 682 
1 0 0 0 2 0 2 687 683 
9 0 0 0 2 0 1 684 
10 0 0 0 4 0 1 686 
7 0 0 0 4 0 1 687 
2 0 0 0 1 0 1 689 
10 0 0 0 3 0 1 689 
2 0 0 0 3 0 1 689 
0 0 0 0 0 0 1 702 
0 0 0 0 0 0 2 691 693 
2 0 0 1 0 0 1 692 
5 0 0 3 0 0 1 694 
2 0 0 4 0 0 1 694 
6 0 0 3 0 0 1 695 
9 0 0 2 0 0 3 700 699 696 
3 0 0 1 0 0 1 697 
6 0 0 2 0 0 1 698 
1 0 0 3 0 0 1 701 
8 0 0 3 0 0 1 701 
1 0 0 3 0 0 1 701 
0 0 0 0 0 0 1 702 
0 0 0 0 0 0 0 
